(set-logic QF_S)
(declare-fun var0 () String)
(assert (RegexIn var0 (RegexConcat (RegexStar (RegexUnion (Str2Reg "000") (Str2Reg "1"))) (RegexConcat (RegexPlus (RegexStar (Str2Reg "222"))) (RegexConcat (RegexUnion (RegexStar (Str2Reg "333")) (RegexStar (Str2Reg "4"))) (RegexConcat (RegexUnion (RegexPlus (Str2Reg "55")) (RegexPlus (Str2Reg "6"))) (RegexConcat (RegexPlus (RegexPlus (Str2Reg "7"))) (RegexConcat (RegexUnion (RegexUnion (Str2Reg "888") (Str2Reg "9")) (RegexUnion (Str2Reg "aa") (Str2Reg "bbb"))) (RegexConcat (RegexStar (RegexUnion (Str2Reg "ccc") (Str2Reg "dd"))) (RegexConcat (RegexStar (RegexUnion (Str2Reg "ee") (Str2Reg "fff"))) (RegexConcat (RegexPlus (RegexStar (Str2Reg "ggg"))) (RegexStar (RegexPlus (Str2Reg "h"))))))))))))))
(assert (<= 151 (Length var0)))
(check-sat)